
Gurobi 9.5.0 (linux64) logging started Tue Nov  7 13:14:31 2023

Set parameter LogFile to value "/lustre1/scratch/348/vsc34888/JointResearch/05.Models/06.Benchmarking/D.Representative_days_based_on_RES_and_Demand/9n_ByStages_nc20/openStarNet_9n_ByStages_nc20.log"
Set parameter Method to value 2
Set parameter MIPFocus to value 1
Set parameter Presolve to value 2
Set parameter RINS to value 100
Set parameter MIPGap to value 0.01
Set parameter Threads to value 36
Set parameter TimeLimit to value 604800
Set parameter IterationLimit to value 760000000
Gurobi Optimizer version 9.5.0 build v9.5.0rc5 (linux64)
Thread count: 36 physical cores, 36 logical processors, using up to 36 threads
Optimize a model with 5549 rows, 2924 columns and 16562 nonzeros
Model fingerprint: 0xf83c26c5
Variable types: 2888 continuous, 36 integer (36 binary)
Coefficient statistics:
  Matrix range     [9e-04, 2e+03]
  Objective range  [1e+00, 1e+00]
  Bounds range     [2e-03, 2e+00]
  RHS range        [9e-04, 1e+00]
Presolve removed 2009 rows and 966 columns
Presolve time: 0.02s
Presolved: 3540 rows, 1958 columns, 12542 nonzeros
Variable types: 1922 continuous, 36 integer (36 binary)
Found heuristic solution: objective 606.8636640
Root relaxation presolved: 3540 rows, 1958 columns, 12542 nonzeros

Root barrier log...

Ordering time: 0.08s

Barrier statistics:
 AA' NZ     : 1.542e+05
 Factor NZ  : 1.027e+06 (roughly 10 MB of memory)
 Factor Ops : 5.420e+08 (less than 1 second per iteration)
 Threads    : 36

                  Objective                Residual
Iter       Primal          Dual         Primal    Dual     Compl     Time
   0   3.47783995e+05 -1.49306826e+07  6.05e+00 3.52e+02  6.28e+03     0s
   1   4.09180944e+04 -4.18118267e+06  6.41e-01 3.87e-11  8.01e+02     0s
   2   8.52769074e+03 -5.39436628e+05  3.66e-13 3.92e-11  7.79e+01     0s
   3   2.06967698e+03 -2.38969592e+04  9.99e-13 1.08e-11  3.69e+00     0s
   4   9.23328677e+02 -4.88757682e+03  4.29e-13 1.82e-12  8.26e-01     0s
   5   4.97703437e+02 -1.57822480e+03  4.22e-13 9.09e-13  2.95e-01     0s
   6   3.29626635e+02 -8.57042563e+02  2.97e-13 9.09e-13  1.69e-01     0s
   7   2.07312362e+02 -3.62360501e+02  3.34e-13 1.82e-12  8.10e-02     0s
   8   1.25165063e+02 -3.69876920e+01  2.68e-13 9.09e-13  2.30e-02     0s
   9   9.49777080e+01  6.93146937e+01  2.37e-13 9.09e-13  3.65e-03     0s
  10   8.38068284e+01  8.20507549e+01  1.32e-12 1.82e-12  2.50e-04     0s
  11   8.30527517e+01  8.30470833e+01  3.63e-13 1.82e-12  8.06e-07     0s
  12   8.30489354e+01  8.30489353e+01  1.56e-12 9.09e-13  9.35e-13     0s

Barrier solved model in 12 iterations and 0.42 seconds (0.15 work units)
Optimal objective 8.30489354e+01


Root relaxation: objective 8.304894e+01, 152 iterations, 0.39 seconds (0.11 work units)

    Nodes    |    Current Node    |     Objective Bounds      |     Work
 Expl Unexpl |  Obj  Depth IntInf | Incumbent    BestBd   Gap | It/Node Time

     0     0   83.04894    0    5  606.86366   83.04894  86.3%     -    0s
H    0     0                     529.1609554   83.04894  84.3%     -    0s
H    0     0                     107.3785508   83.04894  22.7%     -    0s
H    0     0                      93.6535508   92.67573  1.04%     -    0s
     0     0   92.67573    0    2   93.65355   92.67573  1.04%     -    0s
H    0     0                      93.4161723   92.67573  0.79%     -    0s

Cutting planes:
  Implied bound: 7
  MIR: 31

Explored 1 nodes (239 simplex iterations) in 0.50 seconds (0.19 work units)
Thread count was 36 (of 36 available processors)

Solution count 5: 93.4162 93.6536 107.379 ... 606.864

Optimal solution found (tolerance 1.00e-02)
Best objective 9.341617232444e+01, best bound 9.267572921058e+01, gap 0.7926%

Gurobi 9.5.0 (linux64) logging started Tue Nov  7 13:14:32 2023

Set parameter LogFile to value "/lustre1/scratch/348/vsc34888/JointResearch/05.Models/06.Benchmarking/D.Representative_days_based_on_RES_and_Demand/9n_ByStages_nc20/openStarNet_9n_ByStages_nc20.log"
Set parameter Method to value 2
Set parameter MIPFocus to value 1
Set parameter Presolve to value 2
Set parameter RINS to value 100
Set parameter MIPGap to value 0.01
Set parameter Threads to value 36
Set parameter TimeLimit to value 604800
Set parameter IterationLimit to value 760000000
No parameters matching 'relax_integrality' found
Gurobi Optimizer version 9.5.0 build v9.5.0rc5 (linux64)
Thread count: 36 physical cores, 36 logical processors, using up to 36 threads
Optimize a model with 5549 rows, 2888 columns and 13646 nonzeros
Model fingerprint: 0xee568a9b
Coefficient statistics:
  Matrix range     [9e-04, 2e+03]
  Objective range  [1e+00, 1e+00]
  Bounds range     [2e-03, 2e+00]
  RHS range        [9e-04, 2e+01]
Presolve removed 4849 rows and 1659 columns
Presolve time: 0.01s
Presolved: 700 rows, 1229 columns, 2649 nonzeros

Ordering time: 0.00s

Barrier statistics:
 AA' NZ     : 1.840e+03
 Factor NZ  : 7.140e+03 (roughly 1 MB of memory)
 Factor Ops : 8.778e+04 (less than 1 second per iteration)
 Threads    : 1

                  Objective                Residual
Iter       Primal          Dual         Primal    Dual     Compl     Time
   0   3.91902887e+05 -8.63050540e+06  3.39e+00 9.09e-13  7.64e+03     0s
   1   5.80305154e+04 -1.69040952e+06  3.52e-01 4.55e-12  9.03e+02     0s
   2   1.19693807e+04 -2.68307264e+05  1.49e-02 5.82e-12  1.07e+02     0s
   3   2.26941581e+03 -9.65966831e+03  2.40e-04 2.73e-12  4.42e+00     0s
   4   6.65808921e+02 -1.47330847e+03  7.28e-14 1.36e-12  7.93e-01     0s
   5   3.14933613e+02 -4.42948004e+02  4.88e-14 9.09e-13  2.81e-01     0s
   6   1.91181630e+02 -1.74804166e+02  8.79e-14 9.09e-13  1.36e-01     0s
   7   1.22161817e+02 -1.21460869e+01  5.21e-13 9.09e-13  4.98e-02     0s
   8   9.66598696e+01  8.26475798e+01  3.65e-13 1.82e-12  5.19e-03     0s
   9   9.35358354e+01  9.26797261e+01  1.50e-12 9.09e-13  3.17e-04     0s
  10   9.34179309e+01  9.34128754e+01  5.30e-13 1.82e-12  1.87e-06     0s
  11   9.34161723e+01  9.34161723e+01  1.71e-12 9.09e-13  6.22e-12     0s

Barrier solved model in 11 iterations and 0.02 seconds (0.01 work units)
Optimal objective 9.34161723e+01

Crossover log...

     238 DPushes remaining with DInf 0.0000000e+00                 0s
       0 DPushes remaining with DInf 0.0000000e+00                 0s

      24 PPushes remaining with PInf 0.0000000e+00                 0s
       0 PPushes remaining with PInf 0.0000000e+00                 0s

  Push phase complete: Pinf 0.0000000e+00, Dinf 1.6031620e-13      0s

Iteration    Objective       Primal Inf.    Dual Inf.      Time
      39    9.3416172e+01   0.000000e+00   0.000000e+00      0s

Solved in 39 iterations and 0.02 seconds (0.01 work units)
Optimal objective  9.341617232e+01
